
Gurobi 11.0.3 (linux64, gurobi_cl) logging started Tue Sep 17 15:19:49 2024

Set parameter Username
Set parameter LogFile to value "gurobi.log"
Using license file /home/halil/gurobi.lic
Academic license - for non-commercial use only - expires 2025-09-16

Gurobi Optimizer version 11.0.3 build v11.0.3rc0 (linux64 - "Ubuntu 22.04.5 LTS")
Copyright (c) 2024, Gurobi Optimization, LLC

Read LP format model from file problem.lp
Reading time = 0.34 seconds
obj: 72953 rows, 460 columns, 667310 nonzeros

CPU model: 11th Gen Intel(R) Core(TM) i7-1165G7 @ 2.80GHz, instruction set [SSE2|AVX|AVX2|AVX512]
Thread count: 4 physical cores, 8 logical processors, using up to 8 threads

Optimize a model with 72953 rows, 460 columns and 667310 nonzeros
Model fingerprint: 0x6247acc6
Variable types: 0 continuous, 460 integer (0 binary)
Coefficient statistics:
  Matrix range     [1e+00, 5e+00]
  Objective range  [1e+00, 1e+00]
  Bounds range     [1e+00, 1e+00]
  RHS range        [1e+00, 4e+00]
Found heuristic solution: objective 150.0000000
Presolve removed 800 rows and 40 columns
Presolve time: 0.95s
Presolved: 72153 rows, 420 columns, 666390 nonzeros
Variable types: 0 continuous, 420 integer (420 binary)
Root relaxation presolved: 420 rows, 72573 columns, 666810 nonzeros


Use crossover to convert LP symmetric solution to basic solution...

Root relaxation: objective 3.048067e+00, 83 iterations, 0.38 seconds (0.64 work units)

    Nodes    |    Current Node    |     Objective Bounds      |     Work
 Expl Unexpl |  Obj  Depth IntInf | Incumbent    BestBd   Gap | It/Node Time

     0     0    3.04807    0  386  150.00000    3.04807  98.0%     -    2s
H    0     0                      69.0000000    3.04807  95.6%     -    2s
H    0     0                      24.0000000    3.04807  87.3%     -    2s
     0     0   10.27937    0  323   24.00000   10.27937  57.2%     -    5s
     0     0   13.26488    0  348   24.00000   13.26488  44.7%     -    8s
     0     0   14.30200    0  341   24.00000   14.30200  40.4%     -   10s
     0     0   14.38626    0  334   24.00000   14.38626  40.1%     -   10s
     0     0   14.39841    0  339   24.00000   14.39841  40.0%     -   11s
     0     0   15.55549    0  327   24.00000   15.55549  35.2%     -   13s
     0     0   15.68766    0  341   24.00000   15.68766  34.6%     -   13s
     0     0   15.70867    0  334   24.00000   15.70867  34.5%     -   14s
     0     0   15.71209    0  333   24.00000   15.71209  34.5%     -   14s
     0     0   15.71307    0  344   24.00000   15.71307  34.5%     -   14s
     0     0   16.64636    0  317   24.00000   16.64636  30.6%     -   16s
     0     0   16.78454    0  317   24.00000   16.78454  30.1%     -   16s
     0     0   16.82683    0  330   24.00000   16.82683  29.9%     -   16s
     0     0   16.82803    0  330   24.00000   16.82803  29.9%     -   17s
     0     0   17.55059    0  334   24.00000   17.55059  26.9%     -   18s
     0     0   17.60158    0  321   24.00000   17.60158  26.7%     -   19s
     0     0   17.69549    0  349   24.00000   17.69549  26.3%     -   19s
     0     0   17.69926    0  347   24.00000   17.69926  26.3%     -   19s
     0     0   17.71646    0  339   24.00000   17.71646  26.2%     -   19s
     0     0   17.71824    0  324   24.00000   17.71824  26.2%     -   19s
     0     0   17.72672    0  340   24.00000   17.72672  26.1%     -   19s
     0     0   17.73390    0  355   24.00000   17.73390  26.1%     -   20s
     0     0   17.73393    0  355   24.00000   17.73393  26.1%     -   20s
     0     0   18.89793    0  363   24.00000   18.89793  21.3%     -   21s
     0     0   18.94650    0  364   24.00000   18.94650  21.1%     -   22s
     0     0   18.96559    0  369   24.00000   18.96559  21.0%     -   22s
     0     0   18.96972    0  350   24.00000   18.96972  21.0%     -   23s
     0     0   18.96980    0  348   24.00000   18.96980  21.0%     -   23s
     0     0   19.24210    0  347   24.00000   19.24210  19.8%     -   24s
     0     0   19.30250    0  358   24.00000   19.30250  19.6%     -   25s
     0     0   19.30505    0  372   24.00000   19.30505  19.6%     -   25s
     0     0   19.30560    0  356   24.00000   19.30560  19.6%     -   25s
     0     0   19.51371    0  340   24.00000   19.51371  18.7%     -   27s
     0     0   19.63767    0  353   24.00000   19.63767  18.2%     -   27s
     0     0   19.68675    0  336   24.00000   19.68675  18.0%     -   27s
     0     0   19.68687    0  336   24.00000   19.68687  18.0%     -   28s
     0     0   19.80911    0  341   24.00000   19.80911  17.5%     -   29s
     0     0   19.87701    0  345   24.00000   19.87701  17.2%     -   29s
     0     0   19.88132    0  356   24.00000   19.88132  17.2%     -   30s
     0     0   19.88146    0  356   24.00000   19.88146  17.2%     -   30s
     0     0   19.98725    0  327   24.00000   19.98725  16.7%     -   31s
     0     0   20.02912    0  302   24.00000   20.02912  16.5%     -   32s
     0     0   20.05749    0  305   24.00000   20.05749  16.4%     -   32s
     0     0   20.11314    0  301   24.00000   20.11314  16.2%     -   33s
     0     0   20.15295    0  300   24.00000   20.15295  16.0%     -   33s
     0     0   20.15341    0  301   24.00000   20.15341  16.0%     -   33s
     0     0   20.15544    0  298   24.00000   20.15544  16.0%     -   34s
     0     0   20.15609    0  298   24.00000   20.15609  16.0%     -   34s
     0     0   20.29899    0  289   24.00000   20.29899  15.4%     -   36s
     0     0   20.33390    0  295   24.00000   20.33390  15.3%     -   36s
     0     0   20.34595    0  338   24.00000   20.34595  15.2%     -   36s
     0     0   20.51894    0  276   24.00000   20.51894  14.5%     -   37s
     0     0   20.53078    0  301   24.00000   20.53078  14.5%     -   38s
     0     0   20.53078    0  300   24.00000   20.53078  14.5%     -   38s
     0     0   20.53155    0  303   24.00000   20.53155  14.5%     -   38s
     0     0   20.54721    0  313   24.00000   20.54721  14.4%     -   39s
     0     0   20.54955    0  291   24.00000   20.54955  14.4%     -   39s
     0     0   20.54958    0  293   24.00000   20.54958  14.4%     -   39s
     0     0   20.55175    0  295   24.00000   20.55175  14.4%     -   40s
     0     0   20.55532    0  306   24.00000   20.55532  14.4%     -   40s
     0     0   20.55560    0  307   24.00000   20.55560  14.4%     -   40s
     0     0   20.55744    0  307   24.00000   20.55744  14.3%     -   41s
     0     0   20.55744    0  307   24.00000   20.55744  14.3%     -   43s
     0     2   20.55744    0  306   24.00000   20.55744  14.3%     -   45s

Cutting planes:
  Cover: 3
  MIR: 45
  Zero half: 11

Explored 5 nodes (20764 simplex iterations) in 47.98 seconds (104.14 work units)
Thread count was 8 (of 8 available processors)

Solution count 3: 24 69 150 

Optimal solution found (tolerance 1.00e-04)
Best objective 2.400000000000e+01, best bound 2.400000000000e+01, gap 0.0000%

Gurobi 11.0.3 (linux64, gurobi_cl) logging started Wed Sep 18 10:02:52 2024

Set parameter Username
Set parameter LogFile to value "gurobi.log"
Using license file /home/halil/gurobi.lic
Academic license - for non-commercial use only - expires 2025-09-16

Gurobi Optimizer version 11.0.3 build v11.0.3rc0 (linux64 - "Ubuntu 22.04.5 LTS")
Copyright (c) 2024, Gurobi Optimization, LLC

Read LP format model from file problem.lp
Reading time = 1.06 seconds
obj: 72953 rows, 460 columns, 667310 nonzeros

CPU model: 11th Gen Intel(R) Core(TM) i7-1165G7 @ 2.80GHz, instruction set [SSE2|AVX|AVX2|AVX512]
Thread count: 4 physical cores, 8 logical processors, using up to 8 threads

Optimize a model with 72953 rows, 460 columns and 667310 nonzeros
Model fingerprint: 0x6247acc6
Variable types: 0 continuous, 460 integer (0 binary)
Coefficient statistics:
  Matrix range     [1e+00, 5e+00]
  Objective range  [1e+00, 1e+00]
  Bounds range     [1e+00, 1e+00]
  RHS range        [1e+00, 4e+00]
Found heuristic solution: objective 150.0000000
Presolve removed 800 rows and 40 columns
Presolve time: 1.73s
Presolved: 72153 rows, 420 columns, 666390 nonzeros
Variable types: 0 continuous, 420 integer (420 binary)
Root relaxation presolved: 420 rows, 72573 columns, 666810 nonzeros


Use crossover to convert LP symmetric solution to basic solution...

Root relaxation: objective 3.048067e+00, 83 iterations, 0.70 seconds (0.64 work units)

    Nodes    |    Current Node    |     Objective Bounds      |     Work
 Expl Unexpl |  Obj  Depth IntInf | Incumbent    BestBd   Gap | It/Node Time

     0     0    3.04807    0  386  150.00000    3.04807  98.0%     -    3s
H    0     0                      69.0000000    3.04807  95.6%     -    3s
H    0     0                      24.0000000    3.04807  87.3%     -    3s
     0     0   10.27937    0  323   24.00000   10.27937  57.2%     -   10s
     0     0   13.26488    0  348   24.00000   13.26488  44.7%     -   14s
     0     0   14.30200    0  341   24.00000   14.30200  40.4%     -   17s
     0     0   14.38626    0  334   24.00000   14.38626  40.1%     -   18s
     0     0   14.39841    0  339   24.00000   14.39841  40.0%     -   18s
     0     0   15.55549    0  327   24.00000   15.55549  35.2%     -   22s
     0     0   15.68766    0  341   24.00000   15.68766  34.6%     -   23s
     0     0   15.70867    0  334   24.00000   15.70867  34.5%     -   23s
     0     0   15.71209    0  333   24.00000   15.71209  34.5%     -   24s
     0     0   15.71307    0  344   24.00000   15.71307  34.5%     -   24s
     0     0   16.64636    0  317   24.00000   16.64636  30.6%     -   27s
     0     0   16.78454    0  317   24.00000   16.78454  30.1%     -   28s
     0     0   16.82683    0  330   24.00000   16.82683  29.9%     -   28s
     0     0   16.82803    0  330   24.00000   16.82803  29.9%     -   28s
     0     0   17.55059    0  334   24.00000   17.55059  26.9%     -   31s
     0     0   17.60158    0  321   24.00000   17.60158  26.7%     -   32s
     0     0   17.69549    0  349   24.00000   17.69549  26.3%     -   32s
     0     0   17.69926    0  347   24.00000   17.69926  26.3%     -   32s
     0     0   17.71646    0  339   24.00000   17.71646  26.2%     -   33s
     0     0   17.71824    0  324   24.00000   17.71824  26.2%     -   33s
     0     0   17.72672    0  340   24.00000   17.72672  26.1%     -   33s
     0     0   17.73390    0  355   24.00000   17.73390  26.1%     -   34s
     0     0   17.73393    0  355   24.00000   17.73393  26.1%     -   34s
     0     0   18.89793    0  363   24.00000   18.89793  21.3%     -   36s
     0     0   18.94650    0  364   24.00000   18.94650  21.1%     -   37s
     0     0   18.96559    0  369   24.00000   18.96559  21.0%     -   38s
     0     0   18.96972    0  350   24.00000   18.96972  21.0%     -   40s
     0     0   18.96980    0  348   24.00000   18.96980  21.0%     -   40s
     0     0   19.24210    0  347   24.00000   19.24210  19.8%     -   43s
     0     0   19.30250    0  358   24.00000   19.30250  19.6%     -   44s
     0     0   19.30505    0  372   24.00000   19.30505  19.6%     -   44s
     0     0   19.30560    0  356   24.00000   19.30560  19.6%     -   44s
     0     0   19.51371    0  340   24.00000   19.51371  18.7%     -   46s
     0     0   19.63767    0  353   24.00000   19.63767  18.2%     -   47s
     0     0   19.68675    0  336   24.00000   19.68675  18.0%     -   48s
     0     0   19.68687    0  336   24.00000   19.68687  18.0%     -   48s
     0     0   19.80911    0  341   24.00000   19.80911  17.5%     -   50s
     0     0   19.87701    0  345   24.00000   19.87701  17.2%     -   51s
     0     0   19.88132    0  356   24.00000   19.88132  17.2%     -   51s
     0     0   19.88146    0  356   24.00000   19.88146  17.2%     -   51s
     0     0   19.98725    0  327   24.00000   19.98725  16.7%     -   53s
     0     0   20.02912    0  302   24.00000   20.02912  16.5%     -   54s
     0     0   20.05749    0  305   24.00000   20.05749  16.4%     -   54s
     0     0   20.11314    0  301   24.00000   20.11314  16.2%     -   56s
     0     0   20.15295    0  300   24.00000   20.15295  16.0%     -   56s
     0     0   20.15341    0  301   24.00000   20.15341  16.0%     -   56s
     0     0   20.15544    0  298   24.00000   20.15544  16.0%     -   58s
     0     0   20.15609    0  298   24.00000   20.15609  16.0%     -   58s
     0     0   20.29899    0  289   24.00000   20.29899  15.4%     -   60s
     0     0   20.33390    0  295   24.00000   20.33390  15.3%     -   60s
     0     0   20.34595    0  338   24.00000   20.34595  15.2%     -   60s
     0     0   20.51894    0  276   24.00000   20.51894  14.5%     -   62s
     0     0   20.53078    0  301   24.00000   20.53078  14.5%     -   63s
     0     0   20.53078    0  300   24.00000   20.53078  14.5%     -   63s
     0     0   20.53155    0  303   24.00000   20.53155  14.5%     -   64s
     0     0   20.54721    0  313   24.00000   20.54721  14.4%     -   64s
     0     0   20.54955    0  291   24.00000   20.54955  14.4%     -   65s
     0     0   20.54958    0  293   24.00000   20.54958  14.4%     -   65s
     0     0   20.55175    0  295   24.00000   20.55175  14.4%     -   66s
     0     0   20.55532    0  306   24.00000   20.55532  14.4%     -   66s
     0     0   20.55560    0  307   24.00000   20.55560  14.4%     -   66s
     0     0   20.55744    0  307   24.00000   20.55744  14.3%     -   68s
     0     0   20.55744    0  307   24.00000   20.55744  14.3%     -   70s
     0     2   20.55744    0  306   24.00000   20.55744  14.3%     -   74s
     1     2   21.68244    1  352   24.00000   20.57418  14.3%  1595   76s

Cutting planes:
  Cover: 3
  MIR: 45
  Zero half: 11

Explored 5 nodes (20764 simplex iterations) in 78.13 seconds (104.14 work units)
Thread count was 8 (of 8 available processors)

Solution count 3: 24 69 150 

Optimal solution found (tolerance 1.00e-04)
Best objective 2.400000000000e+01, best bound 2.400000000000e+01, gap 0.0000%

Gurobi 11.0.3 (linux64, gurobi_cl) logging started Wed Sep 18 10:28:59 2024

Set parameter Username
Set parameter LogFile to value "gurobi.log"
Using license file /home/halil/gurobi.lic
Academic license - for non-commercial use only - expires 2025-09-16

Gurobi Optimizer version 11.0.3 build v11.0.3rc0 (linux64 - "Ubuntu 22.04.5 LTS")
Copyright (c) 2024, Gurobi Optimization, LLC

Read LP format model from file problem.lp
Reading time = 1.11 seconds
obj: 72953 rows, 460 columns, 667310 nonzeros

CPU model: 11th Gen Intel(R) Core(TM) i7-1165G7 @ 2.80GHz, instruction set [SSE2|AVX|AVX2|AVX512]
Thread count: 4 physical cores, 8 logical processors, using up to 8 threads

Optimize a model with 72953 rows, 460 columns and 667310 nonzeros
Model fingerprint: 0x6247acc6
Variable types: 0 continuous, 460 integer (0 binary)
Coefficient statistics:
  Matrix range     [1e+00, 5e+00]
  Objective range  [1e+00, 1e+00]
  Bounds range     [1e+00, 1e+00]
  RHS range        [1e+00, 4e+00]
Found heuristic solution: objective 150.0000000
Presolve removed 800 rows and 40 columns
Presolve time: 1.98s
Presolved: 72153 rows, 420 columns, 666390 nonzeros
Variable types: 0 continuous, 420 integer (420 binary)
Root relaxation presolved: 420 rows, 72573 columns, 666810 nonzeros


Use crossover to convert LP symmetric solution to basic solution...

Root relaxation: objective 3.048067e+00, 83 iterations, 0.60 seconds (0.64 work units)

    Nodes    |    Current Node    |     Objective Bounds      |     Work
 Expl Unexpl |  Obj  Depth IntInf | Incumbent    BestBd   Gap | It/Node Time

     0     0    3.04807    0  386  150.00000    3.04807  98.0%     -    3s
H    0     0                      69.0000000    3.04807  95.6%     -    3s
H    0     0                      24.0000000    3.04807  87.3%     -    3s
     0     0   10.27937    0  323   24.00000   10.27937  57.2%     -   10s
     0     0   13.26488    0  348   24.00000   13.26488  44.7%     -   14s
     0     0   14.30200    0  341   24.00000   14.30200  40.4%     -   17s
     0     0   14.38626    0  334   24.00000   14.38626  40.1%     -   18s
     0     0   14.39841    0  339   24.00000   14.39841  40.0%     -   18s
     0     0   15.55549    0  327   24.00000   15.55549  35.2%     -   22s
     0     0   15.68766    0  341   24.00000   15.68766  34.6%     -   23s
     0     0   15.70867    0  334   24.00000   15.70867  34.5%     -   23s
     0     0   15.71209    0  333   24.00000   15.71209  34.5%     -   23s
     0     0   15.71307    0  344   24.00000   15.71307  34.5%     -   23s
     0     0   16.64636    0  317   24.00000   16.64636  30.6%     -   26s
     0     0   16.78454    0  317   24.00000   16.78454  30.1%     -   27s
     0     0   16.82683    0  330   24.00000   16.82683  29.9%     -   27s
     0     0   16.82803    0  330   24.00000   16.82803  29.9%     -   28s
     0     0   17.55059    0  334   24.00000   17.55059  26.9%     -   30s
     0     0   17.60158    0  321   24.00000   17.60158  26.7%     -   31s
     0     0   17.69549    0  349   24.00000   17.69549  26.3%     -   31s
     0     0   17.69926    0  347   24.00000   17.69926  26.3%     -   31s
     0     0   17.71646    0  339   24.00000   17.71646  26.2%     -   32s
     0     0   17.71824    0  324   24.00000   17.71824  26.2%     -   32s
     0     0   17.72672    0  340   24.00000   17.72672  26.1%     -   32s
     0     0   17.73390    0  355   24.00000   17.73390  26.1%     -   32s
     0     0   17.73393    0  355   24.00000   17.73393  26.1%     -   33s
     0     0   18.89793    0  363   24.00000   18.89793  21.3%     -   35s
     0     0   18.94650    0  364   24.00000   18.94650  21.1%     -   36s
     0     0   18.96559    0  369   24.00000   18.96559  21.0%     -   37s
     0     0   18.96972    0  350   24.00000   18.96972  21.0%     -   37s
     0     0   18.96980    0  348   24.00000   18.96980  21.0%     -   37s
     0     0   19.24210    0  347   24.00000   19.24210  19.8%     -   40s
     0     0   19.30250    0  358   24.00000   19.30250  19.6%     -   40s
     0     0   19.30505    0  372   24.00000   19.30505  19.6%     -   41s
     0     0   19.30560    0  356   24.00000   19.30560  19.6%     -   41s
     0     0   19.51371    0  340   24.00000   19.51371  18.7%     -   43s
     0     0   19.63767    0  353   24.00000   19.63767  18.2%     -   44s
     0     0   19.68675    0  336   24.00000   19.68675  18.0%     -   45s
     0     0   19.68687    0  336   24.00000   19.68687  18.0%     -   45s
     0     0   19.80911    0  341   24.00000   19.80911  17.5%     -   47s
     0     0   19.87701    0  345   24.00000   19.87701  17.2%     -   47s
     0     0   19.88132    0  356   24.00000   19.88132  17.2%     -   48s
     0     0   19.88146    0  356   24.00000   19.88146  17.2%     -   48s
     0     0   19.98725    0  327   24.00000   19.98725  16.7%     -   50s
     0     0   20.02912    0  302   24.00000   20.02912  16.5%     -   51s
     0     0   20.05749    0  305   24.00000   20.05749  16.4%     -   51s
     0     0   20.11314    0  301   24.00000   20.11314  16.2%     -   53s
     0     0   20.15295    0  300   24.00000   20.15295  16.0%     -   53s
     0     0   20.15341    0  301   24.00000   20.15341  16.0%     -   53s
     0     0   20.15544    0  298   24.00000   20.15544  16.0%     -   55s
     0     0   20.15609    0  298   24.00000   20.15609  16.0%     -   55s
     0     0   20.29899    0  289   24.00000   20.29899  15.4%     -   57s
     0     0   20.33390    0  295   24.00000   20.33390  15.3%     -   58s
     0     0   20.34595    0  338   24.00000   20.34595  15.2%     -   58s
     0     0   20.51894    0  276   24.00000   20.51894  14.5%     -   60s
     0     0   20.53078    0  301   24.00000   20.53078  14.5%     -   60s
     0     0   20.53078    0  300   24.00000   20.53078  14.5%     -   60s
     0     0   20.53155    0  303   24.00000   20.53155  14.5%     -   62s
     0     0   20.54721    0  313   24.00000   20.54721  14.4%     -   63s
     0     0   20.54955    0  291   24.00000   20.54955  14.4%     -   63s
     0     0   20.54958    0  293   24.00000   20.54958  14.4%     -   63s
     0     0   20.55175    0  295   24.00000   20.55175  14.4%     -   64s
     0     0   20.55532    0  306   24.00000   20.55532  14.4%     -   65s
     0     0   20.55560    0  307   24.00000   20.55560  14.4%     -   65s
     0     0   20.55744    0  307   24.00000   20.55744  14.3%     -   67s
     0     0   20.55744    0  307   24.00000   20.55744  14.3%     -   70s
     0     2   20.55744    0  306   24.00000   20.55744  14.3%     -   75s

Cutting planes:
  Cover: 3
  MIR: 45
  Zero half: 11

Explored 5 nodes (20764 simplex iterations) in 79.26 seconds (104.14 work units)
Thread count was 8 (of 8 available processors)

Solution count 3: 24 69 150 

Optimal solution found (tolerance 1.00e-04)
Best objective 2.400000000000e+01, best bound 2.400000000000e+01, gap 0.0000%
